&control
    calculation='scf'
    restart_mode='from_scratch'
    pseudo_dir = '../pseudo'
    outdir='./'
    disk_io='none'
    tstress=.true.
    tprnfor=.true.
/
&system
    ibrav=2
    celldm(1)=10.33520
    nat=2
    ntyp=1
    nbnd=8
    ecutwfc=60.0
    occupations='fixed'
/
 &electrons
    conv_thr = 2.0d-08
    mixing_beta = 0.7
/
ATOMIC_SPECIES
  Si  28.085  Si.pbe-n-kjpaw_psl.1.0.0.UPF
ATOMIC_POSITIONS {crystal}
  Si  0.00    0.00  0.00
  Si  0.25    0.25  0.25
K_POINTS {automatic}
 8 8 8 1 1 1
